NAME : X-n308-k13
COMMENT : "Generated by Uchoa, Pecin, Pessoa, Poggi, Subramanian, and Vidal (2013)"
TYPE : CVRP
DIMENSION : 308
EDGE_WEIGHT_TYPE : EUC_2D
EDGE_WEIGHT_FORMAT : 
CAPACITY : 246
DISTANCE : 1.79769e+308
SERVICE_TIME : 0
NODE_COORD_SECTION
1 0 0
2 706 137
3 392 662
4 692 274
5 944 370
6 726 945
7 869 43
8 621 770
9 112 402
10 523 374
11 619 178
12 553 457
13 95 814
14 696 130
15 27 417
16 940 487
17 943 965
18 670 435
19 931 752
20 307 776
21 404 101
22 199 526
23 117 312
24 762 505
25 433 864
26 868 155
27 832 870
28 488 624
29 686 782
30 585 89
31 268 339
32 248 344
33 22 776
34 89 614
35 75 271
36 882 646
37 6 656
38 449 27
39 857 362
40 809 774
41 403 626
42 559 145
43 667 945
44 524 737
45 683 777
46 641 798
47 514 495
48 102 813
49 517 591
50 748 330
51 859 127
52 699 41
53 281 442
54 257 106
55 116 99
56 41 732
57 555 95
58 378 1
59 155 308
60 942 955
61 619 205
62 646 910
63 796 791
64 785 49
65 958 817
66 424 240
67 311 226
68 37 119
69 761 866
70 404 417
71 929 432
72 743 535
73 418 679
74 107 379
75 329 868
76 22 432
77 24 474
78 380 83
79 145 135
80 576 209
81 877 859
82 901 0
83 464 473
84 181 35
85 976 331
86 672 617
87 324 264
88 193 341
89 525 782
90 527 935
91 218 529
92 48 325
93 431 989
94 626 974
95 594 432
96 757 450
97 805 123
98 959 266
99 348 776
100 409 946
101 458 247
102 841 361
103 333 503
104 675 306
105 407 811
106 418 325
107 856 199
108 300 792
109 371 156
110 163 237
111 172 589
112 609 928
113 273 18
114 379 694
115 996 38
116 4 6
117 738 18
118 693 307
119 989 54
120 468 585
121 594 172
122 563 205
123 271 783
124 58 987
125 374 383
126 775 530
127 913 512
128 413 798
129 813 948
130 943 941
131 437 169
132 247 374
133 347 51
134 8 111
135 321 825
136 854 335
137 619 272
138 742 232
139 496 187
140 605 66
141 973 75
142 241 509
143 845 106
144 451 217
145 955 319
146 432 662
147 704 73
148 418 205
149 817 754
150 570 429
151 362 720
152 114 713
153 11 516
154 737 62
155 563 318
156 222 187
157 697 638
158 343 830
159 1 279
160 3 342
161 159 177
162 386 880
163 493 321
164 366 804
165 655 303
166 524 297
167 633 506
168 522 325
169 541 547
170 378 801
171 89 325
172 724 631
173 76 414
174 514 273
175 378 958
176 690 639
177 217 176
178 222 135
179 233 59
180 248 871
181 356 223
182 38 314
183 118 33
184 359 835
185 36 361
186 340 718
187 682 361
188 82 210
189 293 801
190 744 627
191 249 336
192 232 799
193 102 526
194 5 262
195 221 216
196 87 148
197 664 361
198 656 366
199 537 434
200 696 622
201 330 105
202 621 753
203 401 923
204 159 253
205 552 382
206 364 793
207 271 72
208 804 650
209 12 288
210 29 322
211 213 3
212 598 388
213 243 144
214 273 196
215 623 781
216 107 370
217 516 271
218 1 270
219 432 765
220 62 608
221 55 270
222 841 468
223 616 334
224 235 243
225 221 773
226 79 461
227 186 665
228 165 871
229 608 391
230 349 329
231 227 136
232 17 329
233 559 430
234 736 641
235 387 3
236 12 327
237 20 283
238 149 266
239 764 651
240 100 768
241 567 435
242 110 270
243 304 770
244 739 876
245 61 312
246 71 260
247 215 125
248 255 202
249 747 667
250 481 97
251 198 160
252 289 287
253 65 344
254 235 151
255 413 724
256 362 952
257 107 111
258 245 182
259 188 217
260 300 735
261 517 304
262 401 321
263 8 299
264 204 181
265 734 562
266 259 344
267 705 626
268 783 708
269 159 450
270 543 262
271 373 44
272 483 678
273 704 755
274 30 414
275 353 818
276 385 930
277 683 188
278 163 27
279 3 371
280 138 120
281 342 822
282 577 482
283 583 300
284 524 915
285 348 908
286 695 636
287 856 763
288 8 227
289 216 95
290 8 342
291 47 343
292 256 24
293 365 753
294 726 662
295 24 311
296 614 173
297 534 255
298 357 820
299 284 869
300 554 665
301 201 907
302 629 776
303 264 193
304 339 342
305 47 176
306 67 412
307 206 824
308 154 267
PICKUP_AND_DELIVERY_SECTION
1 0 0 0 0 0 0
2 0 0 0 0 0 80
3 0 0 0 0 0 94
4 0 0 0 0 0 87
5 0 0 0 0 0 77
6 0 0 0 0 0 77
7 0 0 0 0 0 50
8 0 0 0 0 0 79
9 0 0 0 0 0 86
10 0 0 0 0 0 75
11 0 0 0 0 84 0
12 0 0 0 0 0 88
13 0 0 0 0 0 94
14 0 0 0 0 0 74
15 0 0 0 0 0 95
16 0 0 0 0 0 89
17 0 0 0 0 0 83
18 0 0 0 0 0 55
19 0 0 0 0 0 77
20 0 0 0 0 0 1
21 0 0 0 0 7 0
22 0 0 0 0 0 3
23 0 0 0 0 0 7
24 0 0 0 0 0 5
25 0 0 0 0 0 2
26 0 0 0 0 0 2
27 0 0 0 0 0 2
28 0 0 0 0 0 5
29 0 0 0 0 0 2
30 0 0 0 0 0 7
31 0 0 0 0 1 0
32 0 0 0 0 0 5
33 0 0 0 0 0 5
34 0 0 0 0 0 8
35 0 0 0 0 0 4
36 0 0 0 0 0 2
37 0 0 0 0 0 8
38 0 0 0 0 0 9
39 0 0 0 0 0 1
40 0 0 0 0 0 10
41 0 0 0 0 3 0
42 0 0 0 0 0 10
43 0 0 0 0 0 3
44 0 0 0 0 0 2
45 0 0 0 0 0 3
46 0 0 0 0 0 2
47 0 0 0 0 0 1
48 0 0 0 0 0 5
49 0 0 0 0 0 4
50 0 0 0 0 0 3
51 0 0 0 0 4 0
52 0 0 0 0 0 3
53 0 0 0 0 0 5
54 0 0 0 0 0 3
55 0 0 0 0 0 5
56 0 0 0 0 0 6
57 0 0 0 0 0 9
58 0 0 0 0 0 6
59 0 0 0 0 0 4
60 0 0 0 0 0 2
61 0 0 0 0 7 0
62 0 0 0 0 0 10
63 0 0 0 0 0 2
64 0 0 0 0 0 3
65 0 0 0 0 0 10
66 0 0 0 0 0 8
67 0 0 0 0 0 10
68 0 0 0 0 0 10
69 0 0 0 0 0 4
70 0 0 0 0 0 4
71 0 0 0 0 10 0
72 0 0 0 0 0 7
73 0 0 0 0 0 4
74 0 0 0 0 0 1
75 0 0 0 0 0 4
76 0 0 0 0 0 9
77 0 0 0 0 0 3
78 0 0 0 0 0 10
79 0 0 0 0 0 4
80 0 0 0 0 0 3
81 0 0 0 0 10 0
82 0 0 0 0 0 10
83 0 0 0 0 0 1
84 0 0 0 0 0 6
85 0 0 0 0 0 3
86 0 0 0 0 0 2
87 0 0 0 0 0 8
88 0 0 0 0 0 8
89 0 0 0 0 0 7
90 0 0 0 0 0 3
91 0 0 0 0 7 0
92 0 0 0 0 0 8
93 0 0 0 0 0 6
94 0 0 0 0 0 1
95 0 0 0 0 0 10
96 0 0 0 0 0 10
97 0 0 0 0 0 9
98 0 0 0 0 0 10
99 0 0 0 0 0 10
100 0 0 0 0 0 6
101 0 0 0 0 7 0
102 0 0 0 0 0 6
103 0 0 0 0 0 10
104 0 0 0 0 0 1
105 0 0 0 0 0 3
106 0 0 0 0 0 2
107 0 0 0 0 0 2
108 0 0 0 0 0 2
109 0 0 0 0 0 3
110 0 0 0 0 0 2
111 0 0 0 0 1 0
112 0 0 0 0 0 7
113 0 0 0 0 0 6
114 0 0 0 0 0 5
115 0 0 0 0 0 8
116 0 0 0 0 0 3
117 0 0 0 0 0 3
118 0 0 0 0 0 4
119 0 0 0 0 0 8
120 0 0 0 0 0 2
121 0 0 0 0 9 0
122 0 0 0 0 0 6
123 0 0 0 0 0 3
124 0 0 0 0 0 6
125 0 0 0 0 0 10
126 0 0 0 0 0 2
127 0 0 0 0 0 8
128 0 0 0 0 0 8
129 0 0 0 0 0 6
130 0 0 0 0 0 6
131 0 0 0 0 7 0
132 0 0 0 0 0 1
133 0 0 0 0 0 8
134 0 0 0 0 0 6
135 0 0 0 0 0 3
136 0 0 0 0 0 4
137 0 0 0 0 0 2
138 0 0 0 0 0 5
139 0 0 0 0 0 10
140 0 0 0 0 0 3
141 0 0 0 0 4 0
142 0 0 0 0 0 10
143 0 0 0 0 0 4
144 0 0 0 0 0 7
145 0 0 0 0 0 5
146 0 0 0 0 0 10
147 0 0 0 0 0 8
148 0 0 0 0 0 6
149 0 0 0 0 0 8
150 0 0 0 0 0 10
151 0 0 0 0 7 0
152 0 0 0 0 0 2
153 0 0 0 0 0 8
154 0 0 0 0 0 8
155 0 0 0 0 0 5
156 0 0 0 0 0 8
157 0 0 0 0 0 2
158 0 0 0 0 0 5
159 0 0 0 0 0 9
160 0 0 0 0 0 9
161 0 0 0 0 2 0
162 0 0 0 0 0 8
163 0 0 0 0 0 3
164 0 0 0 0 0 9
165 0 0 0 0 0 10
166 0 0 0 0 0 6
167 0 0 0 0 0 2
168 0 0 0 0 0 9
169 0 0 0 0 0 3
170 0 0 0 0 0 3
171 0 0 0 0 10 0
172 0 0 0 0 0 4
173 0 0 0 0 0 10
174 0 0 0 0 0 6
175 0 0 0 0 0 6
176 0 0 0 0 0 7
177 0 0 0 0 0 1
178 0 0 0 0 0 8
179 0 0 0 0 0 3
180 0 0 0 0 0 7
181 0 0 0 0 10 0
182 0 0 0 0 0 3
183 0 0 0 0 0 8
184 0 0 0 0 0 9
185 0 0 0 0 0 5
186 0 0 0 0 0 10
187 0 0 0 0 0 6
188 0 0 0 0 0 6
189 0 0 0 0 0 4
190 0 0 0 0 0 3
191 0 0 0 0 5 0
192 0 0 0 0 0 5
193 0 0 0 0 0 10
194 0 0 0 0 0 10
195 0 0 0 0 0 10
196 0 0 0 0 0 2
197 0 0 0 0 0 6
198 0 0 0 0 0 9
199 0 0 0 0 0 8
200 0 0 0 0 0 7
201 0 0 0 0 10 0
202 0 0 0 0 0 8
203 0 0 0 0 0 5
204 0 0 0 0 0 8
205 0 0 0 0 0 2
206 0 0 0 0 0 4
207 0 0 0 0 0 9
208 0 0 0 0 0 9
209 0 0 0 0 0 5
210 0 0 0 0 0 1
211 0 0 0 0 6 0
212 0 0 0 0 0 9
213 0 0 0 0 0 3
214 0 0 0 0 0 5
215 0 0 0 0 0 4
216 0 0 0 0 0 7
217 0 0 0 0 0 5
218 0 0 0 0 0 6
219 0 0 0 0 0 9
220 0 0 0 0 0 4
221 0 0 0 0 10 0
222 0 0 0 0 0 9
223 0 0 0 0 0 9
224 0 0 0 0 0 10
225 0 0 0 0 0 3
226 0 0 0 0 0 3
227 0 0 0 0 0 2
228 0 0 0 0 0 3
229 0 0 0 0 0 8
230 0 0 0 0 0 8
231 0 0 0 0 6 0
232 0 0 0 0 0 2
233 0 0 0 0 0 5
234 0 0 0 0 0 3
235 0 0 0 0 0 8
236 0 0 0 0 0 8
237 0 0 0 0 0 4
238 0 0 0 0 0 6
239 0 0 0 0 0 6
240 0 0 0 0 0 5
241 0 0 0 0 10 0
242 0 0 0 0 0 2
243 0 0 0 0 0 9
244 0 0 0 0 0 6
245 0 0 0 0 0 8
246 0 0 0 0 0 9
247 0 0 0 0 0 6
248 0 0 0 0 0 7
249 0 0 0 0 0 8
250 0 0 0 0 0 8
251 0 0 0 0 4 0
252 0 0 0 0 0 4
253 0 0 0 0 0 1
254 0 0 0 0 0 5
255 0 0 0 0 0 3
256 0 0 0 0 0 6
257 0 0 0 0 0 3
258 0 0 0 0 0 10
259 0 0 0 0 0 10
260 0 0 0 0 0 3
261 0 0 0 0 8 0
262 0 0 0 0 0 5
263 0 0 0 0 0 7
264 0 0 0 0 0 5
265 0 0 0 0 0 10
266 0 0 0 0 0 10
267 0 0 0 0 0 10
268 0 0 0 0 0 5
269 0 0 0 0 0 7
270 0 0 0 0 0 4
271 0 0 0 0 10 0
272 0 0 0 0 0 8
273 0 0 0 0 0 8
274 0 0 0 0 0 4
275 0 0 0 0 0 6
276 0 0 0 0 0 8
277 0 0 0 0 0 7
278 0 0 0 0 0 7
279 0 0 0 0 0 8
280 0 0 0 0 0 2
281 0 0 0 0 7 0
282 0 0 0 0 0 8
283 0 0 0 0 0 6
284 0 0 0 0 0 7
285 0 0 0 0 0 10
286 0 0 0 0 0 3
287 0 0 0 0 0 9
288 0 0 0 0 0 5
289 0 0 0 0 0 2
290 0 0 0 0 0 4
291 0 0 0 0 8 0
292 0 0 0 0 0 5
293 0 0 0 0 0 10
294 0 0 0 0 0 3
295 0 0 0 0 0 3
296 0 0 0 0 0 10
297 0 0 0 0 0 7
298 0 0 0 0 0 2
299 0 0 0 0 0 4
300 0 0 0 0 0 4
301 0 0 0 0 5 0
302 0 0 0 0 0 1
303 0 0 0 0 0 2
304 0 0 0 0 0 1
305 0 0 0 0 0 2
306 0 0 0 0 0 8
307 0 0 0 0 0 8
308 0 0 0 0 0 9
